NumberOfAtoms:         41
NumberOfSpecies:        4

LatticeConstant 1. Ang 
%block LatticeVectors
     5.939696962    -10.287852123      0.000000000 
     5.939696962     10.287852123      0.000000000 
     0.000000000      0.000000000     22.017116050
%endblock LatticeVectors

%block ChemicalSpeciesLabel 
     1    79 Au                      # Species index, atomic number, species label 
     2    6 C                      # Species index, atomic number, species label 
     3    7 N                      # Species index, atomic number, species label 
     4    1 H                      # Species index, atomic number, species label 
%endblock ChemicalSpeciesLabel 

# isol Au5-mol 


AtomicCoordinatesFormat  Ang 
%block AtomicCoordinatesAndAtomicSpecies 
     5.589171000      0.059116000     20.857882000       1
     7.314696000      0.035940000     19.267303000       3
     7.918652000      0.794699000     19.615763000       4
     7.724027000     -0.869314000     19.541043000       4
     6.476386000      0.290134000     15.058001000       2
     6.155156000     -0.881247000     15.810495000       2
     6.422263000     -0.962412000     17.193138000       2
     7.041871000      0.127678000     17.863792000       2
     7.347388000      1.310855000     17.139377000       2
     7.066880000      1.384829000     15.757453000       2
     6.135300000     -1.864287000     17.770562000       4
     5.656682000     -1.734519000     15.308628000       4
     7.357465000      2.297952000     15.199016000       4
     7.830939000      2.166587000     17.654367000       4
     5.773218000      0.525474000     10.738075000       2
     6.129368000     -0.707243000     11.362849000       2
     6.352316000     -0.783380000     12.754129000       2
     6.220374000      0.366737000     13.588999000       2
     5.853776000      1.597168000     12.965171000       2
     5.639550000      1.675480000     11.572252000       2
     6.680247000     -1.746545000     13.194748000       4
     6.280568000     -1.610983000     10.738935000       4
     5.323023000      2.639725000     11.125117000       4
     5.697728000      2.500432000     13.588712000       4
     5.779524000      1.844117000      7.127254000       2
     5.995272000      1.746697000      8.519085000       2
     5.551580000      0.612454000      9.262811000       2
     4.892463000     -0.432926000      8.547530000       2
     4.670416000     -0.345645000      7.156245000       2
     5.097425000      0.805567000      6.436859000       2
     4.516421000     -1.317826000      9.099805000       4
     4.154307000     -1.167754000      6.619946000       4
     6.144391000      2.730859000      6.568784000       4
     6.542635000      2.559672000      9.037572000       4
     4.878069000      0.898020000      5.025337000       3
     4.935169000      1.862356000      4.667088000       4
     3.987954000      0.478527000      4.721655000       4
     6.433420000      1.560670000      1.136480000       1
     4.347620000     -0.370870000      1.136910000       1
     7.056310000     -1.200100000      1.137810000       1
     6.270697000     -0.152838000      3.439029000       1
%endblock AtomicCoordinatesAndAtomicSpecies 
